(set-logic QF_NRA)
(set-info :source |
From termination analysis of term rewriting.

Submitted by Harald Roman Zankl <Harald.Zankl@uibk.ac.at>

|)
(set-info :smt-lib-version 2.0)
(set-info :category "industrial")
(set-info :status unknown)
(declare-fun x6 () Real)
(declare-fun x13 () Real)
(declare-fun x3 () Real)
(declare-fun x10 () Real)
(declare-fun x0 () Real)
(declare-fun x7 () Real)
(declare-fun x14 () Real)
(declare-fun x4 () Real)
(declare-fun x11 () Real)
(declare-fun x1 () Real)
(declare-fun x8 () Real)
(declare-fun x15 () Real)
(declare-fun x5 () Real)
(declare-fun x12 () Real)
(declare-fun x2 () Real)
(declare-fun x9 () Real)
(declare-fun x16 () Real)
(assert (>= x6 0))
(assert (>= x13 0))
(assert (>= x3 0))
(assert (>= x10 0))
(assert (>= x0 0))
(assert (>= x7 0))
(assert (>= x14 0))
(assert (>= x4 0))
(assert (>= x11 0))
(assert (>= x1 0))
(assert (>= x8 0))
(assert (>= x15 0))
(assert (>= x5 0))
(assert (>= x12 0))
(assert (>= x2 0))
(assert (>= x9 0))
(assert (>= x16 0))
(assert (and (and (and (and (and (and (not (<= (+ (* (- 1) (* x6 x4)) (* x7 x5) (* x6 x8) (* (- 1) (* x3 x5)) (* x10 x4 x5) (* x3 x5 x9) (* x6 x3 x11) (* x6 x4 x12)) 0)) (>= (+ (* (- 1) (* x6 x4)) (* x7 x5) (* x6 x8) (* (- 1) (* x3 x5)) (* x10 x4 x5) (* x3 x5 x9) (* x6 x3 x11) (* x6 x4 x12)) 0)) (and (not (<= (+ (* (- 1) (* x6 x4)) (* x3 x1) (* x4 x2) (* x7 x5) (* x6 x8) (* (- 1) (* x3 x5)) (* (- 1) (* x7 x1)) (* (- 1) (* x8 x2)) (* x10 x4 x5) (* x3 x5 x9) (* x6 x3 x11) (* x6 x4 x12) (* (- 1) (* x10 x4 x1)) (* (- 1) (* x13 x3 x1)) (* (- 1) (* x14 x4 x1)) (* (- 1) (* x3 x1 x9)) (* (- 1) (* x3 x11 x2)) (* (- 1) (* x4 x12 x2)) (* (- 1) (* x3 x15 x2)) (* (- 1) (* x4 x2 x16))) 0)) (>= (+ (* (- 1) (* x6 x4)) (* x3 x1) (* x4 x2) (* x7 x5) (* x6 x8) (* (- 1) (* x3 x5)) (* (- 1) (* x7 x1)) (* (- 1) (* x8 x2)) (* x10 x4 x5) (* x3 x5 x9) (* x6 x3 x11) (* x6 x4 x12) (* (- 1) (* x10 x4 x1)) (* (- 1) (* x13 x3 x1)) (* (- 1) (* x14 x4 x1)) (* (- 1) (* x3 x1 x9)) (* (- 1) (* x3 x11 x2)) (* (- 1) (* x4 x12 x2)) (* (- 1) (* x3 x15 x2)) (* (- 1) (* x4 x2 x16))) 0))) (and (and (not (<= (+ (* x3 x1) (* x4 x2) (* x10 x4 x5) (* x3 x5 x9) (* x6 x3 x11) (* x6 x4 x12) (* (- 1) (* x13 x3 x5)) (* (- 1) (* x14 x4 x5)) (* (- 1) (* x7 x5 x9)) (* (- 1) (* x10 x8 x5)) (* (- 1) (* x6 x3 x15)) (* (- 1) (* x6 x4 x16)) (* (- 1) (* x6 x7 x11)) (* (- 1) (* x6 x8 x12)) (* (- 1) (* x10 x4 x5 x9)) (* (- 1) (* x13 x3 x5 x9)) (* (- 1) (* x14 x4 x5 x9)) (* (- 1) (* x3 x5 x9 x9)) (* (- 1) (* x3 x10 x11 x5)) (* (- 1) (* x10 x4 x5 x12)) (* (- 1) (* x3 x10 x15 x5)) (* (- 1) (* x10 x4 x5 x16)) (* (- 1) (* x6 x10 x4 x11)) (* (- 1) (* x6 x13 x3 x11)) (* (- 1) (* x6 x14 x4 x11)) (* (- 1) (* x6 x3 x11 x9)) (* (- 1) (* x6 x3 x11 x12)) (* (- 1) (* x6 x4 x12 x12)) (* (- 1) (* x6 x3 x15 x12)) (* (- 1) (* x6 x4 x12 x16))) 0)) (>= (+ (* x3 x1) (* x4 x2) (* x10 x4 x5) (* x3 x5 x9) (* x6 x3 x11) (* x6 x4 x12) (* (- 1) (* x13 x3 x5)) (* (- 1) (* x14 x4 x5)) (* (- 1) (* x7 x5 x9)) (* (- 1) (* x10 x8 x5)) (* (- 1) (* x6 x3 x15)) (* (- 1) (* x6 x4 x16)) (* (- 1) (* x6 x7 x11)) (* (- 1) (* x6 x8 x12)) (* (- 1) (* x10 x4 x5 x9)) (* (- 1) (* x13 x3 x5 x9)) (* (- 1) (* x14 x4 x5 x9)) (* (- 1) (* x3 x5 x9 x9)) (* (- 1) (* x3 x10 x11 x5)) (* (- 1) (* x10 x4 x5 x12)) (* (- 1) (* x3 x10 x15 x5)) (* (- 1) (* x10 x4 x5 x16)) (* (- 1) (* x6 x10 x4 x11)) (* (- 1) (* x6 x13 x3 x11)) (* (- 1) (* x6 x14 x4 x11)) (* (- 1) (* x6 x3 x11 x9)) (* (- 1) (* x6 x3 x11 x12)) (* (- 1) (* x6 x4 x12 x12)) (* (- 1) (* x6 x3 x15 x12)) (* (- 1) (* x6 x4 x12 x16))) 0)) (and (>= (+ (* (- 1) x1) (* x6 x15) (* x13 x5)) 0) (>= (+ (* (- 1) x2) (* x6 x16) (* x14 x5)) 0)))) (and (and (not (<= (+ (* x10 x4 x5) (* x3 x5 x9) (* x6 x3 x11) (* x6 x4 x12) (* (- 1) (* x13 x7 x5)) (* (- 1) (* x14 x8 x5)) (* (- 1) (* x6 x7 x15)) (* (- 1) (* x6 x8 x16)) (* (- 1) (* x13 x13 x3 x5)) (* (- 1) (* x13 x14 x4 x5)) (* (- 1) (* x13 x7 x5 x9)) (* (- 1) (* x13 x10 x8 x5)) (* (- 1) (* x3 x14 x15 x5)) (* (- 1) (* x14 x4 x5 x16)) (* (- 1) (* x7 x14 x11 x5)) (* (- 1) (* x14 x8 x5 x12)) (* (- 1) (* x6 x13 x3 x15)) (* (- 1) (* x6 x14 x4 x15)) (* (- 1) (* x6 x7 x15 x9)) (* (- 1) (* x6 x10 x8 x15)) (* (- 1) (* x6 x3 x15 x16)) (* (- 1) (* x6 x4 x16 x16)) (* (- 1) (* x6 x7 x11 x16)) (* (- 1) (* x6 x8 x12 x16)) (* (- 1) (* x13 x10 x4 x5 x9)) (* (- 1) (* x13 x13 x3 x5 x9)) (* (- 1) (* x13 x14 x4 x5 x9)) (* (- 1) (* x13 x3 x5 x9 x9)) (* (- 1) (* x13 x3 x10 x11 x5)) (* (- 1) (* x13 x10 x4 x5 x12)) (* (- 1) (* x13 x3 x10 x15 x5)) (* (- 1) (* x13 x10 x4 x5 x16)) (* (- 1) (* x10 x14 x4 x11 x5)) (* (- 1) (* x13 x3 x14 x11 x5)) (* (- 1) (* x14 x14 x4 x11 x5)) (* (- 1) (* x3 x14 x11 x5 x9)) (* (- 1) (* x3 x14 x11 x5 x12)) (* (- 1) (* x14 x4 x5 x12 x12)) (* (- 1) (* x3 x14 x15 x5 x12)) (* (- 1) (* x14 x4 x5 x12 x16)) (* (- 1) (* x6 x10 x4 x15 x9)) (* (- 1) (* x6 x13 x3 x15 x9)) (* (- 1) (* x6 x14 x4 x15 x9)) (* (- 1) (* x6 x3 x15 x9 x9)) (* (- 1) (* x6 x3 x10 x11 x15)) (* (- 1) (* x6 x10 x4 x15 x12)) (* (- 1) (* x6 x3 x10 x15 x15)) (* (- 1) (* x6 x10 x4 x15 x16)) (* (- 1) (* x6 x10 x4 x11 x16)) (* (- 1) (* x6 x13 x3 x11 x16)) (* (- 1) (* x6 x14 x4 x11 x16)) (* (- 1) (* x6 x3 x11 x9 x16)) (* (- 1) (* x6 x3 x11 x12 x16)) (* (- 1) (* x6 x4 x12 x12 x16)) (* (- 1) (* x6 x3 x15 x12 x16)) (* (- 1) (* x6 x4 x12 x16 x16))) 0)) (>= (+ (* x10 x4 x5) (* x3 x5 x9) (* x6 x3 x11) (* x6 x4 x12) (* (- 1) (* x13 x7 x5)) (* (- 1) (* x14 x8 x5)) (* (- 1) (* x6 x7 x15)) (* (- 1) (* x6 x8 x16)) (* (- 1) (* x13 x13 x3 x5)) (* (- 1) (* x13 x14 x4 x5)) (* (- 1) (* x13 x7 x5 x9)) (* (- 1) (* x13 x10 x8 x5)) (* (- 1) (* x3 x14 x15 x5)) (* (- 1) (* x14 x4 x5 x16)) (* (- 1) (* x7 x14 x11 x5)) (* (- 1) (* x14 x8 x5 x12)) (* (- 1) (* x6 x13 x3 x15)) (* (- 1) (* x6 x14 x4 x15)) (* (- 1) (* x6 x7 x15 x9)) (* (- 1) (* x6 x10 x8 x15)) (* (- 1) (* x6 x3 x15 x16)) (* (- 1) (* x6 x4 x16 x16)) (* (- 1) (* x6 x7 x11 x16)) (* (- 1) (* x6 x8 x12 x16)) (* (- 1) (* x13 x10 x4 x5 x9)) (* (- 1) (* x13 x13 x3 x5 x9)) (* (- 1) (* x13 x14 x4 x5 x9)) (* (- 1) (* x13 x3 x5 x9 x9)) (* (- 1) (* x13 x3 x10 x11 x5)) (* (- 1) (* x13 x10 x4 x5 x12)) (* (- 1) (* x13 x3 x10 x15 x5)) (* (- 1) (* x13 x10 x4 x5 x16)) (* (- 1) (* x10 x14 x4 x11 x5)) (* (- 1) (* x13 x3 x14 x11 x5)) (* (- 1) (* x14 x14 x4 x11 x5)) (* (- 1) (* x3 x14 x11 x5 x9)) (* (- 1) (* x3 x14 x11 x5 x12)) (* (- 1) (* x14 x4 x5 x12 x12)) (* (- 1) (* x3 x14 x15 x5 x12)) (* (- 1) (* x14 x4 x5 x12 x16)) (* (- 1) (* x6 x10 x4 x15 x9)) (* (- 1) (* x6 x13 x3 x15 x9)) (* (- 1) (* x6 x14 x4 x15 x9)) (* (- 1) (* x6 x3 x15 x9 x9)) (* (- 1) (* x6 x3 x10 x11 x15)) (* (- 1) (* x6 x10 x4 x15 x12)) (* (- 1) (* x6 x3 x10 x15 x15)) (* (- 1) (* x6 x10 x4 x15 x16)) (* (- 1) (* x6 x10 x4 x11 x16)) (* (- 1) (* x6 x13 x3 x11 x16)) (* (- 1) (* x6 x14 x4 x11 x16)) (* (- 1) (* x6 x3 x11 x9 x16)) (* (- 1) (* x6 x3 x11 x12 x16)) (* (- 1) (* x6 x4 x12 x12 x16)) (* (- 1) (* x6 x3 x15 x12 x16)) (* (- 1) (* x6 x4 x12 x16 x16))) 0)) (and (>= (+ (* x6 x15) (* (- 1) (* x5 x9)) (* (- 1) (* x6 x11)) (* x13 x5)) 0) (>= (+ (* x6 x16) (* (- 1) (* x6 x12)) (* x14 x5) (* (- 1) (* x10 x5))) 0)))) (and (and (not (<= (+ (* x13 x3 x9) (* x13 x10 x4) (* x3 x14 x11) (* x14 x4 x12) (* (- 1) (* x13 x13 x7)) (* (- 1) (* x13 x14 x8)) (* (- 1) (* x7 x14 x15)) (* (- 1) (* x14 x8 x16)) (* (- 1) (* x13 x13 x13 x3)) (* (- 1) (* x13 x13 x14 x4)) (* (- 1) (* x13 x13 x7 x9)) (* (- 1) (* x13 x13 x10 x8)) (* (- 2) (* x13 x3 x14 x15)) (* (- 1) (* x13 x14 x4 x16)) (* (- 1) (* x13 x7 x14 x11)) (* (- 1) (* x13 x14 x8 x12)) (* (- 1) (* x14 x14 x4 x15)) (* (- 1) (* x7 x14 x15 x9)) (* (- 1) (* x10 x14 x8 x15)) (* (- 1) (* x3 x14 x15 x16)) (* (- 1) (* x14 x4 x16 x16)) (* (- 1) (* x7 x14 x11 x16)) (* (- 1) (* x14 x8 x12 x16)) (* (- 1) (* x13 x13 x10 x4 x9)) (* (- 1) (* x13 x13 x13 x3 x9)) (* (- 1) (* x13 x13 x14 x4 x9)) (* (- 1) (* x13 x13 x3 x9 x9)) (* (- 1) (* x13 x13 x3 x10 x11)) (* (- 1) (* x13 x13 x10 x4 x12)) (* (- 1) (* x13 x13 x3 x10 x15)) (* (- 1) (* x13 x13 x10 x4 x16)) (* (- 1) (* x13 x10 x14 x4 x11)) (* (- 1) (* x13 x13 x3 x14 x11)) (* (- 1) (* x13 x14 x14 x4 x11)) (* (- 1) (* x13 x3 x14 x11 x9)) (* (- 1) (* x13 x3 x14 x11 x12)) (* (- 1) (* x13 x14 x4 x12 x12)) (* (- 1) (* x13 x3 x14 x15 x12)) (* (- 1) (* x13 x14 x4 x12 x16)) (* (- 1) (* x10 x14 x4 x15 x9)) (* (- 1) (* x13 x3 x14 x15 x9)) (* (- 1) (* x14 x14 x4 x15 x9)) (* (- 1) (* x3 x14 x15 x9 x9)) (* (- 1) (* x3 x10 x14 x11 x15)) (* (- 1) (* x10 x14 x4 x15 x12)) (* (- 1) (* x3 x10 x14 x15 x15)) (* (- 1) (* x10 x14 x4 x15 x16)) (* (- 1) (* x10 x14 x4 x11 x16)) (* (- 1) (* x13 x3 x14 x11 x16)) (* (- 1) (* x14 x14 x4 x11 x16)) (* (- 1) (* x3 x14 x11 x9 x16)) (* (- 1) (* x3 x14 x11 x12 x16)) (* (- 1) (* x14 x4 x12 x12 x16)) (* (- 1) (* x3 x14 x15 x12 x16)) (* (- 1) (* x14 x4 x12 x16 x16))) 0)) (and (>= (+ (* x13 x3 x9) (* x13 x10 x4) (* x3 x14 x11) (* x14 x4 x12) (* (- 1) (* x13 x13 x7)) (* (- 1) (* x13 x14 x8)) (* (- 1) (* x7 x14 x15)) (* (- 1) (* x14 x8 x16)) (* (- 1) (* x13 x13 x13 x3)) (* (- 1) (* x13 x13 x14 x4)) (* (- 1) (* x13 x13 x7 x9)) (* (- 1) (* x13 x13 x10 x8)) (* (- 2) (* x13 x3 x14 x15)) (* (- 1) (* x13 x14 x4 x16)) (* (- 1) (* x13 x7 x14 x11)) (* (- 1) (* x13 x14 x8 x12)) (* (- 1) (* x14 x14 x4 x15)) (* (- 1) (* x7 x14 x15 x9)) (* (- 1) (* x10 x14 x8 x15)) (* (- 1) (* x3 x14 x15 x16)) (* (- 1) (* x14 x4 x16 x16)) (* (- 1) (* x7 x14 x11 x16)) (* (- 1) (* x14 x8 x12 x16)) (* (- 1) (* x13 x13 x10 x4 x9)) (* (- 1) (* x13 x13 x13 x3 x9)) (* (- 1) (* x13 x13 x14 x4 x9)) (* (- 1) (* x13 x13 x3 x9 x9)) (* (- 1) (* x13 x13 x3 x10 x11)) (* (- 1) (* x13 x13 x10 x4 x12)) (* (- 1) (* x13 x13 x3 x10 x15)) (* (- 1) (* x13 x13 x10 x4 x16)) (* (- 1) (* x13 x10 x14 x4 x11)) (* (- 1) (* x13 x13 x3 x14 x11)) (* (- 1) (* x13 x14 x14 x4 x11)) (* (- 1) (* x13 x3 x14 x11 x9)) (* (- 1) (* x13 x3 x14 x11 x12)) (* (- 1) (* x13 x14 x4 x12 x12)) (* (- 1) (* x13 x3 x14 x15 x12)) (* (- 1) (* x13 x14 x4 x12 x16)) (* (- 1) (* x10 x14 x4 x15 x9)) (* (- 1) (* x13 x3 x14 x15 x9)) (* (- 1) (* x14 x14 x4 x15 x9)) (* (- 1) (* x3 x14 x15 x9 x9)) (* (- 1) (* x3 x10 x14 x11 x15)) (* (- 1) (* x10 x14 x4 x15 x12)) (* (- 1) (* x3 x10 x14 x15 x15)) (* (- 1) (* x10 x14 x4 x15 x16)) (* (- 1) (* x10 x14 x4 x11 x16)) (* (- 1) (* x13 x3 x14 x11 x16)) (* (- 1) (* x14 x14 x4 x11 x16)) (* (- 1) (* x3 x14 x11 x9 x16)) (* (- 1) (* x3 x14 x11 x12 x16)) (* (- 1) (* x14 x4 x12 x12 x16)) (* (- 1) (* x3 x14 x15 x12 x16)) (* (- 1) (* x14 x4 x12 x16 x16))) 0) (>= (+ (* x4 x12 x16) (* x10 x4 x15) (* x3 x15 x9) (* x3 x11 x16) (* (- 1) (* x13 x7 x15)) (* (- 1) (* x14 x8 x15)) (* (- 1) (* x7 x15 x16)) (* (- 1) (* x8 x16 x16)) (* (- 1) (* x13 x13 x3 x15)) (* (- 1) (* x13 x14 x4 x15)) (* (- 1) (* x13 x7 x15 x9)) (* (- 1) (* x13 x10 x8 x15)) (* (- 1) (* x3 x14 x15 x15)) (* (- 2) (* x14 x4 x15 x16)) (* (- 1) (* x7 x14 x11 x15)) (* (- 1) (* x14 x8 x15 x12)) (* (- 1) (* x13 x3 x15 x16)) (* (- 1) (* x7 x15 x9 x16)) (* (- 1) (* x10 x8 x15 x16)) (* (- 1) (* x3 x15 x16 x16)) (* (- 1) (* x4 x16 x16 x16)) (* (- 1) (* x7 x11 x16 x16)) (* (- 1) (* x8 x12 x16 x16)) (* (- 1) (* x13 x10 x4 x15 x9)) (* (- 1) (* x13 x13 x3 x15 x9)) (* (- 1) (* x13 x14 x4 x15 x9)) (* (- 1) (* x13 x3 x15 x9 x9)) (* (- 1) (* x13 x3 x10 x11 x15)) (* (- 1) (* x13 x10 x4 x15 x12)) (* (- 1) (* x13 x3 x10 x15 x15)) (* (- 1) (* x13 x10 x4 x15 x16)) (* (- 1) (* x10 x14 x4 x11 x15)) (* (- 1) (* x13 x3 x14 x11 x15)) (* (- 1) (* x14 x14 x4 x11 x15)) (* (- 1) (* x3 x14 x11 x15 x9)) (* (- 1) (* x3 x14 x11 x15 x12)) (* (- 1) (* x14 x4 x15 x12 x12)) (* (- 1) (* x3 x14 x15 x15 x12)) (* (- 1) (* x14 x4 x15 x12 x16)) (* (- 1) (* x10 x4 x15 x9 x16)) (* (- 1) (* x13 x3 x15 x9 x16)) (* (- 1) (* x14 x4 x15 x9 x16)) (* (- 1) (* x3 x15 x9 x9 x16)) (* (- 1) (* x3 x10 x11 x15 x16)) (* (- 1) (* x10 x4 x15 x12 x16)) (* (- 1) (* x3 x10 x15 x15 x16)) (* (- 1) (* x10 x4 x15 x16 x16)) (* (- 1) (* x10 x4 x11 x16 x16)) (* (- 1) (* x13 x3 x11 x16 x16)) (* (- 1) (* x14 x4 x11 x16 x16)) (* (- 1) (* x3 x11 x9 x16 x16)) (* (- 1) (* x3 x11 x12 x16 x16)) (* (- 1) (* x4 x12 x12 x16 x16)) (* (- 1) (* x3 x15 x12 x16 x16)) (* (- 1) (* x4 x12 x16 x16 x16))) 0))) (and (and (and (>= (+ (* x13 x13) (* x14 x15) (* (- 1) (* x13 x9)) (* (- 1) (* x14 x11))) 0) (>= (+ (* x13 x14) (* x14 x16) (* (- 1) (* x13 x10)) (* (- 1) (* x14 x12))) 0)) (>= (+ (* (- 1) (* x15 x9)) (* x13 x15) (* x15 x16) (* (- 1) (* x11 x16))) 0)) (>= (+ (* x14 x15) (* x16 x16) (* (- 1) (* x10 x15)) (* (- 1) (* x12 x16))) 0)))) (and (and (and (and (not (<= (+ (* (- 1) (* x6 x4)) (* x7 x5) (* x6 x8) (* (- 1) (* x3 x5)) (* x10 x4 x5) (* x3 x5 x9) (* x6 x3 x11) (* x6 x4 x12)) 0)) (>= (+ (* (- 1) (* x6 x4)) (* x7 x5) (* x6 x8) (* (- 1) (* x3 x5)) (* x10 x4 x5) (* x3 x5 x9) (* x6 x3 x11) (* x6 x4 x12)) 0)) (and (not (<= (+ (* (- 1) (* x6 x4)) (* x3 x1) (* x4 x2) (* x7 x5) (* x6 x8) (* (- 1) (* x3 x5)) (* (- 1) (* x7 x1)) (* (- 1) (* x8 x2)) (* x10 x4 x5) (* x3 x5 x9) (* x6 x3 x11) (* x6 x4 x12) (* (- 1) (* x10 x4 x1)) (* (- 1) (* x13 x3 x1)) (* (- 1) (* x14 x4 x1)) (* (- 1) (* x3 x1 x9)) (* (- 1) (* x3 x11 x2)) (* (- 1) (* x4 x12 x2)) (* (- 1) (* x3 x15 x2)) (* (- 1) (* x4 x2 x16))) 0)) (>= (+ (* (- 1) (* x6 x4)) (* x3 x1) (* x4 x2) (* x7 x5) (* x6 x8) (* (- 1) (* x3 x5)) (* (- 1) (* x7 x1)) (* (- 1) (* x8 x2)) (* x10 x4 x5) (* x3 x5 x9) (* x6 x3 x11) (* x6 x4 x12) (* (- 1) (* x10 x4 x1)) (* (- 1) (* x13 x3 x1)) (* (- 1) (* x14 x4 x1)) (* (- 1) (* x3 x1 x9)) (* (- 1) (* x3 x11 x2)) (* (- 1) (* x4 x12 x2)) (* (- 1) (* x3 x15 x2)) (* (- 1) (* x4 x2 x16))) 0))) (and (and (not (<= (+ (* x3 x1) (* x4 x2) (* x10 x4 x5) (* x3 x5 x9) (* x6 x3 x11) (* x6 x4 x12) (* (- 1) (* x13 x3 x5)) (* (- 1) (* x14 x4 x5)) (* (- 1) (* x7 x5 x9)) (* (- 1) (* x10 x8 x5)) (* (- 1) (* x6 x3 x15)) (* (- 1) (* x6 x4 x16)) (* (- 1) (* x6 x7 x11)) (* (- 1) (* x6 x8 x12)) (* (- 1) (* x10 x4 x5 x9)) (* (- 1) (* x13 x3 x5 x9)) (* (- 1) (* x14 x4 x5 x9)) (* (- 1) (* x3 x5 x9 x9)) (* (- 1) (* x3 x10 x11 x5)) (* (- 1) (* x10 x4 x5 x12)) (* (- 1) (* x3 x10 x15 x5)) (* (- 1) (* x10 x4 x5 x16)) (* (- 1) (* x6 x10 x4 x11)) (* (- 1) (* x6 x13 x3 x11)) (* (- 1) (* x6 x14 x4 x11)) (* (- 1) (* x6 x3 x11 x9)) (* (- 1) (* x6 x3 x11 x12)) (* (- 1) (* x6 x4 x12 x12)) (* (- 1) (* x6 x3 x15 x12)) (* (- 1) (* x6 x4 x12 x16))) 0)) (>= (+ (* x3 x1) (* x4 x2) (* x10 x4 x5) (* x3 x5 x9) (* x6 x3 x11) (* x6 x4 x12) (* (- 1) (* x13 x3 x5)) (* (- 1) (* x14 x4 x5)) (* (- 1) (* x7 x5 x9)) (* (- 1) (* x10 x8 x5)) (* (- 1) (* x6 x3 x15)) (* (- 1) (* x6 x4 x16)) (* (- 1) (* x6 x7 x11)) (* (- 1) (* x6 x8 x12)) (* (- 1) (* x10 x4 x5 x9)) (* (- 1) (* x13 x3 x5 x9)) (* (- 1) (* x14 x4 x5 x9)) (* (- 1) (* x3 x5 x9 x9)) (* (- 1) (* x3 x10 x11 x5)) (* (- 1) (* x10 x4 x5 x12)) (* (- 1) (* x3 x10 x15 x5)) (* (- 1) (* x10 x4 x5 x16)) (* (- 1) (* x6 x10 x4 x11)) (* (- 1) (* x6 x13 x3 x11)) (* (- 1) (* x6 x14 x4 x11)) (* (- 1) (* x6 x3 x11 x9)) (* (- 1) (* x6 x3 x11 x12)) (* (- 1) (* x6 x4 x12 x12)) (* (- 1) (* x6 x3 x15 x12)) (* (- 1) (* x6 x4 x12 x16))) 0)) (and (>= (+ (* (- 1) x1) (* x6 x15) (* x13 x5)) 0) (>= (+ (* (- 1) x2) (* x6 x16) (* x14 x5)) 0)))) (and (and (not (<= (+ (* x10 x4 x5) (* x3 x5 x9) (* x6 x3 x11) (* x6 x4 x12) (* (- 1) (* x13 x7 x5)) (* (- 1) (* x14 x8 x5)) (* (- 1) (* x6 x7 x15)) (* (- 1) (* x6 x8 x16)) (* (- 1) (* x13 x13 x3 x5)) (* (- 1) (* x13 x14 x4 x5)) (* (- 1) (* x13 x7 x5 x9)) (* (- 1) (* x13 x10 x8 x5)) (* (- 1) (* x3 x14 x15 x5)) (* (- 1) (* x14 x4 x5 x16)) (* (- 1) (* x7 x14 x11 x5)) (* (- 1) (* x14 x8 x5 x12)) (* (- 1) (* x6 x13 x3 x15)) (* (- 1) (* x6 x14 x4 x15)) (* (- 1) (* x6 x7 x15 x9)) (* (- 1) (* x6 x10 x8 x15)) (* (- 1) (* x6 x3 x15 x16)) (* (- 1) (* x6 x4 x16 x16)) (* (- 1) (* x6 x7 x11 x16)) (* (- 1) (* x6 x8 x12 x16)) (* (- 1) (* x13 x10 x4 x5 x9)) (* (- 1) (* x13 x13 x3 x5 x9)) (* (- 1) (* x13 x14 x4 x5 x9)) (* (- 1) (* x13 x3 x5 x9 x9)) (* (- 1) (* x13 x3 x10 x11 x5)) (* (- 1) (* x13 x10 x4 x5 x12)) (* (- 1) (* x13 x3 x10 x15 x5)) (* (- 1) (* x13 x10 x4 x5 x16)) (* (- 1) (* x10 x14 x4 x11 x5)) (* (- 1) (* x13 x3 x14 x11 x5)) (* (- 1) (* x14 x14 x4 x11 x5)) (* (- 1) (* x3 x14 x11 x5 x9)) (* (- 1) (* x3 x14 x11 x5 x12)) (* (- 1) (* x14 x4 x5 x12 x12)) (* (- 1) (* x3 x14 x15 x5 x12)) (* (- 1) (* x14 x4 x5 x12 x16)) (* (- 1) (* x6 x10 x4 x15 x9)) (* (- 1) (* x6 x13 x3 x15 x9)) (* (- 1) (* x6 x14 x4 x15 x9)) (* (- 1) (* x6 x3 x15 x9 x9)) (* (- 1) (* x6 x3 x10 x11 x15)) (* (- 1) (* x6 x10 x4 x15 x12)) (* (- 1) (* x6 x3 x10 x15 x15)) (* (- 1) (* x6 x10 x4 x15 x16)) (* (- 1) (* x6 x10 x4 x11 x16)) (* (- 1) (* x6 x13 x3 x11 x16)) (* (- 1) (* x6 x14 x4 x11 x16)) (* (- 1) (* x6 x3 x11 x9 x16)) (* (- 1) (* x6 x3 x11 x12 x16)) (* (- 1) (* x6 x4 x12 x12 x16)) (* (- 1) (* x6 x3 x15 x12 x16)) (* (- 1) (* x6 x4 x12 x16 x16))) 0)) (>= (+ (* x10 x4 x5) (* x3 x5 x9) (* x6 x3 x11) (* x6 x4 x12) (* (- 1) (* x13 x7 x5)) (* (- 1) (* x14 x8 x5)) (* (- 1) (* x6 x7 x15)) (* (- 1) (* x6 x8 x16)) (* (- 1) (* x13 x13 x3 x5)) (* (- 1) (* x13 x14 x4 x5)) (* (- 1) (* x13 x7 x5 x9)) (* (- 1) (* x13 x10 x8 x5)) (* (- 1) (* x3 x14 x15 x5)) (* (- 1) (* x14 x4 x5 x16)) (* (- 1) (* x7 x14 x11 x5)) (* (- 1) (* x14 x8 x5 x12)) (* (- 1) (* x6 x13 x3 x15)) (* (- 1) (* x6 x14 x4 x15)) (* (- 1) (* x6 x7 x15 x9)) (* (- 1) (* x6 x10 x8 x15)) (* (- 1) (* x6 x3 x15 x16)) (* (- 1) (* x6 x4 x16 x16)) (* (- 1) (* x6 x7 x11 x16)) (* (- 1) (* x6 x8 x12 x16)) (* (- 1) (* x13 x10 x4 x5 x9)) (* (- 1) (* x13 x13 x3 x5 x9)) (* (- 1) (* x13 x14 x4 x5 x9)) (* (- 1) (* x13 x3 x5 x9 x9)) (* (- 1) (* x13 x3 x10 x11 x5)) (* (- 1) (* x13 x10 x4 x5 x12)) (* (- 1) (* x13 x3 x10 x15 x5)) (* (- 1) (* x13 x10 x4 x5 x16)) (* (- 1) (* x10 x14 x4 x11 x5)) (* (- 1) (* x13 x3 x14 x11 x5)) (* (- 1) (* x14 x14 x4 x11 x5)) (* (- 1) (* x3 x14 x11 x5 x9)) (* (- 1) (* x3 x14 x11 x5 x12)) (* (- 1) (* x14 x4 x5 x12 x12)) (* (- 1) (* x3 x14 x15 x5 x12)) (* (- 1) (* x14 x4 x5 x12 x16)) (* (- 1) (* x6 x10 x4 x15 x9)) (* (- 1) (* x6 x13 x3 x15 x9)) (* (- 1) (* x6 x14 x4 x15 x9)) (* (- 1) (* x6 x3 x15 x9 x9)) (* (- 1) (* x6 x3 x10 x11 x15)) (* (- 1) (* x6 x10 x4 x15 x12)) (* (- 1) (* x6 x3 x10 x15 x15)) (* (- 1) (* x6 x10 x4 x15 x16)) (* (- 1) (* x6 x10 x4 x11 x16)) (* (- 1) (* x6 x13 x3 x11 x16)) (* (- 1) (* x6 x14 x4 x11 x16)) (* (- 1) (* x6 x3 x11 x9 x16)) (* (- 1) (* x6 x3 x11 x12 x16)) (* (- 1) (* x6 x4 x12 x12 x16)) (* (- 1) (* x6 x3 x15 x12 x16)) (* (- 1) (* x6 x4 x12 x16 x16))) 0)) (and (>= (+ (* x6 x15) (* (- 1) (* x5 x9)) (* (- 1) (* x6 x11)) (* x13 x5)) 0) (>= (+ (* x6 x16) (* (- 1) (* x6 x12)) (* x14 x5) (* (- 1) (* x10 x5))) 0))))))
(exit)
(check-sat)
